
(set-logic ALL) 

(declare-datatype MyList ((Nil) (Cons (head Real) (tail MyList)) )) 
(declare-fun l0 () MyList) 
(declare-fun l1 () MyList) 
(declare-fun l2 () MyList) 
(declare-fun l3 () MyList) 
(declare-fun i0 () Real) 
(declare-fun i1 () Real) 
(assert (= l0 Nil) )
(assert (not (is-Cons Nil)) )
(assert (is-Nil l0) )
(assert (= l3 l2) )
(assert (is-Cons l1) )
(assert (is-Nil Nil) )
(assert (and (= l0 l1) (= l2 Nil) (= l0 l3)) )
(assert (is-Cons l3) )
(check-sat)
